row=8;
column=8;
Board=[|4,0,7,0,0,0,5,6|0,3,0,1,6,1,8,0|1,8,0,0,1,4,6,8|0,7,0,8,0,0,3,0|0,7,0,8,8,0,4,0|5,2,0,0,8,8,0,0|0,0,3,2,0,8,0,8|3,8,8,0,0,8,8,8|];
right = [4,3,2,4,4,4,3,2];
bottom = [4,2,4,4,4,3,1,4];
